* ENCODING=ISO-8859-1
NAME          CPLEX
ROWS
 N  obj1    
 G  c1      
 G  c2      
 G  c3      
 G  c4      
 G  c5      
 G  c6      
 G  c7      
 G  c8      
 G  c9      
 G  c10     
 G  c11     
 G  c12     
 G  c13     
 G  c14     
 G  c15     
 G  c16     
 G  c17     
 G  c18     
 G  c19     
 G  c20     
 G  c21     
 G  c22     
 G  c23     
 G  c24     
 G  c25     
COLUMNS
    MARK0000  'MARKER'                 'INTORG'
    x1        obj1                            1
    x1        c15                           956
    x2        obj1                            1
    x2        c8                            895
    x2        c24                           865
    x3        obj1                            1
    x3        c6                            894
    x3        c11                           890
    x4        obj1                            1
    x4        c9                            464
    x4        c23                           254
    x5        obj1                            1
    x5        c22                           320
    x6        obj1                            1
    x6        c15                           512
    x7        obj1                            1
    x7        c7                            401
    x7        c23                           293
    x8        obj1                            1
    x8        c17                           292
    x8        c25                           859
    x9        obj1                            1
    x9        c2                            383
    x9        c7                            566
    x9        c9                            412
    x10       obj1                            1
    x10       c9                            537
    x10       c14                           895
    x10       c24                           707
    x11       obj1                            1
    x11       c4                            747
    x11       c8                            322
    x11       c9                            421
    x11       c12                           321
    x12       obj1                            1
    x12       c25                           799
    x13       obj1                            1
    x13       c4                            936
    x13       c10                           365
    x13       c11                           607
    x14       obj1                            1
    x14       c24                           760
    x15       obj1                            1
    x15       c4                            107
    x15       c13                           573
    x15       c22                           263
    x15       c23                           303
    x16       obj1                            1
    x16       c2                            619
    x16       c4                            885
    x16       c19                           328
    x17       obj1                            1
    x17       c5                            696
    x17       c17                           504
    x18       obj1                            1
    x18       c11                           572
    x18       c17                           621
    x18       c22                           207
    x19       obj1                            1
    x20       obj1                            1
    x20       c2                            395
    x20       c14                           693
    x20       c15                           370
    x21       obj1                            1
    x21       c20                           588
    x22       obj1                            1
    x22       c5                            107
    x22       c10                           509
    x22       c21                           935
    x23       obj1                            1
    x23       c8                            715
    x23       c12                           527
    x24       obj1                            1
    x24       c19                           116
    x25       obj1                            1
    x25       c13                           703
    x25       c22                           676
    x26       obj1                            1
    x26       c4                            866
    x26       c11                           482
    x26       c14                          1000
    x27       obj1                            1
    x27       c5                            837
    x27       c9                            168
    x27       c15                           787
    x27       c20                           755
    x28       obj1                            1
    x29       obj1                            1
    x29       c1                            253
    x29       c5                            144
    x30       obj1                            1
    x30       c3                            386
    x31       obj1                            1
    x31       c6                            812
    x31       c15                           610
    x31       c16                           617
    x31       c24                           304
    x32       obj1                            1
    x32       c4                            643
    x32       c12                           561
    x32       c21                           464
    x32       c23                           964
    x32       c25                           591
    x33       obj1                            1
    x33       c18                           108
    x33       c23                           590
    x34       obj1                            1
    x34       c16                           766
    x34       c21                           680
    x34       c22                           654
    x34       c23                           474
    x35       obj1                            1
    x35       c1                            518
    x36       obj1                            1
    x36       c18                           991
    x37       obj1                            1
    x37       c6                            968
    x37       c7                            660
    x37       c9                            445
    x37       c10                           136
    x37       c13                           674
    x37       c20                           839
    x38       obj1                            1
    x38       c18                           854
    x39       obj1                            1
    x39       c17                           319
    x39       c18                           839
    x39       c24                           871
    x40       obj1                            1
    x40       c5                            604
    x40       c18                           963
    x41       obj1                            1
    x41       c2                            908
    x41       c12                           898
    x41       c19                           584
    x41       c20                           997
    x41       c24                           616
    x42       obj1                            1
    x42       c1                            159
    x42       c7                            226
    x42       c9                            646
    x42       c11                           989
    x42       c20                           228
    x42       c21                           302
    x43       obj1                            1
    x43       c2                            942
    x43       c11                           750
    x43       c16                           631
    x43       c18                           567
    x44       obj1                            1
    x44       c2                            703
    x44       c23                           414
    x45       obj1                            1
    x45       c6                            563
    x45       c8                            752
    x45       c12                           894
    x45       c17                           720
    x45       c19                           840
    x45       c24                           513
    x46       obj1                            1
    x46       c18                           185
    x47       obj1                            1
    x47       c22                           288
    x48       obj1                            1
    x48       c5                            775
    x49       obj1                            1
    x49       c3                            385
    x49       c7                            806
    x49       c12                           947
    x49       c22                           236
    x50       obj1                            1
    x50       c3                            967
    MARK0001  'MARKER'                 'INTEND'
RHS
    rhs       c1                            465
    rhs       c2                           1975
    rhs       c3                            869
    rhs       c4                           2092
    rhs       c5                           1582
    rhs       c6                           1619
    rhs       c7                           1330
    rhs       c8                           1342
    rhs       c9                           1547
    rhs       c10                           505
    rhs       c11                          2145
    rhs       c12                          2074
    rhs       c13                           975
    rhs       c14                          1294
    rhs       c15                          1618
    rhs       c16                          1007
    rhs       c17                          1228
    rhs       c18                          2254
    rhs       c19                           934
    rhs       c20                          1704
    rhs       c21                          1191
    rhs       c22                          1322
    rhs       c23                          1646
    rhs       c24                          2318
    rhs       c25                          1125
BOUNDS
 LI bnd       x1        0
 LI bnd       x2        0
 LI bnd       x3        0
 LI bnd       x4        0
 LI bnd       x5        0
 LI bnd       x6        0
 LI bnd       x7        0
 LI bnd       x8        0
 LI bnd       x9        0
 LI bnd       x10       0
 LI bnd       x11       0
 LI bnd       x12       0
 LI bnd       x13       0
 LI bnd       x14       0
 LI bnd       x15       0
 LI bnd       x16       0
 LI bnd       x17       0
 LI bnd       x18       0
 LI bnd       x19       0
 LI bnd       x20       0
 LI bnd       x21       0
 LI bnd       x22       0
 LI bnd       x23       0
 LI bnd       x24       0
 LI bnd       x25       0
 LI bnd       x26       0
 LI bnd       x27       0
 LI bnd       x28       0
 LI bnd       x29       0
 LI bnd       x30       0
 LI bnd       x31       0
 LI bnd       x32       0
 LI bnd       x33       0
 LI bnd       x34       0
 LI bnd       x35       0
 LI bnd       x36       0
 LI bnd       x37       0
 LI bnd       x38       0
 LI bnd       x39       0
 LI bnd       x40       0
 LI bnd       x41       0
 LI bnd       x42       0
 LI bnd       x43       0
 LI bnd       x44       0
 LI bnd       x45       0
 LI bnd       x46       0
 LI bnd       x47       0
 LI bnd       x48       0
 LI bnd       x49       0
 LI bnd       x50       0
ENDATA
